n_res = 4;
rcap = [28, 29, 179, 168];
rtype = [1, 1, 2, 2];
n_tasks = 30;
modes = [ {1, 2, 3}, {4, 5, 6}, {7, 8, 9}, {10, 11, 12}, {13, 14, 15}, {16, 17, 18}, {19, 20, 21}, {22, 23, 24}, {25, 26, 27}, {28, 29, 30}, {31, 32, 33}, {34, 35, 36}, {37, 38, 39}, {40, 41, 42}, {43, 44, 45}, {46, 47, 48}, {49, 50, 51}, {52, 53, 54}, {55, 56, 57}, {58, 59, 60}, {61, 62, 63}, {64, 65, 66}, {67, 68, 69}, {70, 71, 72}, {73, 74, 75}, {76, 77, 78}, {79, 80, 81}, {82, 83, 84}, {85, 86, 87}, {88, 89, 90} ];
succ = [ {4, 10, 20}, {5, 20}, {7, 17, 21}, {11, 13}, {6, 12, 13}, {9, 14}, {8}, {20, 24, 25}, {19}, {12, 22}, {16, 17, 18}, {17, 23, 27}, {15, 26}, {16}, {18, 27}, {21, 23, 24}, {26}, {21, 30}, {22, 26}, {28}, {28}, {23, 24, 25}, {29}, {30}, {27, 30}, {28}, {29}, {}, {}, {} ];
n_opt = 90;
dur = [6, 6, 7, 1, 6, 9, 1, 10, 10, 8, 10, 10, 1, 2, 4, 3, 6, 9, 1, 2, 8, 3, 5, 6, 1, 6, 7, 2, 5, 8, 1, 2, 4, 3, 3, 8, 2, 7, 9, 2, 3, 8, 3, 8, 10, 5, 7, 10, 5, 5, 9, 3, 9, 10, 1, 6, 10, 2, 8, 10, 5, 5, 7, 6, 7, 10, 3, 10, 10, 7, 8, 8, 5, 8, 8, 3, 3, 9, 1, 5, 8, 5, 7, 8, 1, 4, 8, 9, 10, 10];
rreq = [|  5,  6,  5,  7,  6,  5,  5,  5,  3,  4,  2,  2,  2,  2,  2,  9,  8,  7,  5,  4,  3,  6,  6,  5,  6,  6,  3,  4,  3,  2,  4,  4,  2,  8,  7,  6,  4,  4,  2,  8,  7,  7,  2,  2,  1,  9,  8,  7,  7,  8,  7,  8,  8,  5,  5,  3,  3,  8,  8,  8, 10, 10, 10,  3,  2,  2,  2,  1,  2,  9,  5,  6,  5,  3,  3,  8, 10,  6,  9,  7,  7,  6,  5,  3,  3,  2,  2,  7,  7,  6
        |  4,  4,  2,  9,  8,  8,  8,  7,  7,  5,  5,  4, 10,  7,  1,  9,  6,  4,  5,  4,  4,  5,  5,  5,  5,  5,  5,  3,  3,  3,  9,  8,  7,  3,  4,  1,  7,  6,  4,  9,  7,  5,  9,  8,  6,  5,  5,  5,  7,  7,  7,  4,  3,  2, 10,  9,  8,  9,  7,  5,  5,  6,  4, 10,  7,  7,  2,  2,  2,  2,  2,  1,  6,  6,  6,  8,  7,  5,  6,  6,  5,  6,  5,  4,  4,  4,  3,  8,  8,  7
        |  7,  6,  5,  8,  7,  6,  9,  8,  7,  4,  2,  3,  8,  8,  7,  9,  8,  8,  9,  7,  6,  6,  4,  1,  9,  8,  6,  6,  4,  3, 10,  9,  7,  6,  8,  6,  6,  6,  5,  7,  5,  2,  9,  8,  5,  7,  7,  4,  4,  3,  2,  4,  3,  1,  7,  7,  7,  7,  6,  3,  7,  7,  7,  7,  6,  1,  6,  6,  6,  7,  3,  7, 10,  9,  8,  7, 10,  4, 10,  9,  7,  7,  7,  4,  3,  2,  2,  7,  7,  5
        |  6,  6,  2,  7,  6,  5,  7,  4,  5,  9,  8,  8,  6,  6,  4,  2,  2,  2,  8,  8,  7,  8,  5,  2,  7,  4,  4,  6,  6,  4,  3,  2,  2,  3,  4,  2, 10, 10, 10,  9,  9,  8,  6,  6,  2,  8,  7,  7,  4,  4,  4,  4,  4,  4,  8,  7,  7,  3,  3,  1,  6,  5,  3,  7,  6,  5,  9,  9,  8,  5,  5,  5,  2,  1,  2,  8, 10,  5,  5,  4,  3, 10,  9,  9,  8,  6,  6,  9,  6,  7 |];
